Tried aggregator 2 times.
MIP Presolve eliminated 12 rows and 5 columns.
MIP Presolve modified 124 coefficients.
Aggregator did 124 substitutions.
Reduced MIP has 628 rows, 569 columns, and 1552 nonzeros.
Reduced MIP has 340 binaries, 17 generals, 0 SOSs, and 112 indicators.
Presolve time = 0.00 sec. (1.46 ticks)
Found incumbent of value 16.000000 after 0.01 sec. (2.59 ticks)
Probing fixed 36 vars, tightened 92 bounds.
Probing time = 0.01 sec. (4.10 ticks)
Tried aggregator 3 times.
MIP Presolve eliminated 56 rows and 50 columns.
MIP Presolve modified 200 coefficients.
Aggregator did 198 substitutions.
Reduced MIP has 374 rows, 321 columns, and 1098 nonzeros.
Reduced MIP has 242 binaries, 79 generals, 0 SOSs, and 88 indicators.
Presolve time = 0.01 sec. (2.15 ticks)
Probing time = 0.00 sec. (1.11 ticks)
Tried aggregator 1 time.
Reduced MIP has 374 rows, 321 columns, and 1098 nonzeros.
Reduced MIP has 242 binaries, 79 generals, 0 SOSs, and 88 indicators.
Presolve time = 0.00 sec. (0.56 ticks)
Probing time = 0.00 sec. (1.12 ticks)
Clique table members: 118.
MIP emphasis: balance optimality and feasibility.
MIP search method: dynamic search.
Parallel mode: deterministic, using up to 4 threads.
Root relaxation solution time = 0.00 sec. (1.10 ticks)

        Nodes                                         Cuts/
   Node  Left     Objective  IInf  Best Integer    Best Bound    ItCnt     Gap

*     0+    0                           16.0000        4.0000      134   75.00%
      0     0        4.0000   133       16.0000        4.0000      134   75.00%
      0     0        4.0000    39       16.0000       Cuts: 7      140   75.00%
      0     0        4.0000   119       16.0000      Cuts: 47      213   75.00%
      0     0        4.0000    57       16.0000      Cuts: 17      243   75.00%
      0     0        4.0000    67       16.0000      Cuts: 34      277   75.00%
*     0+    0                            7.0000        4.0000      277   42.86%
*     0+    0                            4.0000        4.0000      277    0.00%
      0     0        cutoff              4.0000        4.0000      277    0.00%
Elapsed time = 0.13 sec. (48.65 ticks, tree = 0.00 MB, solutions = 3)

Cover cuts applied:  5
Implied bound cuts applied:  9
Mixed integer rounding cuts applied:  2
Zero-half cuts applied:  1
Lift and project cuts applied:  2
Gomory fractional cuts applied:  3

Root node processing (before b&c):
  Real time             =    0.13 sec. (48.67 ticks)
Parallel b&c, 4 threads:
  Real time             =    0.00 sec. (0.00 ticks)
  Sync time (average)   =    0.00 sec.
  Wait time (average)   =    0.00 sec.
                          ------------
Total (root+branch&cut) =    0.13 sec. (48.67 ticks)
